NAME : amtsp.-103329.tour
COMMENT : Length = -103329
COMMENT : Found by LKH [Keld Helsgaun] Fri Oct 13 14:51:29 2023
TYPE : TOUR
DIMENSION : 27
TOUR_SECTION
1
2
9
8
10
11
12
13
14
15
17
16
18
19
21
20
22
23
3
24
25
26
27
4
5
6
7
-1
EOF
